1	1
2	3
3	3
4	3
5	2
6	3
7	3
8	1
9	5
10	5
11	5
12	5
13	4
14	3
15	1
16	1
17	1
18	1
19	3
20	3
21	1
22	3
23	5
24	5
25	5
26	3
27	1
28	3
29	1
30	1
31	5
32	3
33	1
34	1
35	5
36	1
37	5
38	5
39	2
40	1
41	3
42	3
43	1
44	5
45	2
46	1
47	1
48	5
49	5
50	2
51	5
52	3
53	3
54	5
55	3
56	3
57	2
58	5
59	2
60	1
61	3
62	2
63	3
64	5
65	2
66	2
67	5
68	3
69	2
70	5
71	5
72	5
73	2
74	5
75	3
76	2
77	2
78	5
79	5
80	2
81	5
82	1
83	1
84	3
85	5
86	5
87	3
88	2
89	3
90	3
91	1
92	5
93	3
94	3
95	5
96	1
97	1
98	1
99	1
100	1
